p tw 61 67
1 2
2 13
3 4
4 5
5 6
6 7
7 8
8 9
9 10
9 32
10 11
11 12
12 14
12 16
13 24
14 15
15 19
16 17
17 18
18 19
19 20
20 21
20 25
21 22
22 23
23 29
24 35
25 26
26 27
27 28
28 29
29 30
30 31
31 34
32 33
33 34
34 36
35 46
36 37
37 59
38 39
39 40
39 56
40 41
41 42
42 43
42 56
43 44
44 45
45 47
46 57
47 48
48 49
48 53
49 50
50 51
51 52
52 53
53 54
54 55
55 41
56 58
57 59
59 60
60 61
60 38
61 3
